c weights 1 0 0 1 1 1 1 1 1 1 1 1 1 1 1 1 1 1 1 1 1 1 1 1 1 1 1 1 1 1 1 1 1 1 1 1 1 1 1 1 1 1 1 1 1 1 1 1 1 1 1 1 1 1 1 1 1 1 1 1 1 1 1 1 1 1 1 1 1 1 1 1 1 1 1 1 0.92 0.08 1 1 0.05 0.95 1 1 1 1 0.95 0.05 1 1 1 1 0.05 0.95 1 1 0.9 0.1 1 1 1 1 1 1 0.1 0.9 1 1 1 1 0.04 0.96 1 1 1 1 0.1 0.9 1 1 1 1 0.1 0.9 1 1 1 1 0.01 0.99 1 1 1 1 0.01 0.99 0.3333333 0.67 0.01 0.99 0.97 0.03 0.01 0.99 0.01 0.99 0.97 0.03 0.01 0.99 0.01 0.99 0.01 0.99 0.05 0.95 0.95 0.05 0.3 0.7 0.1 0.9 0.69 0.31 0.01 0.99 0.05 0.95 0.01 0.99 0.01 0.99 0.01 0.99 0.97 0.03 0.3 0.7 0.68 0.32 0.01 0.99 0.3 0.7 0.99 0.01 0.3333333 0.67 1.0 0.0 0.0 1.0 0.95 0.05 0.04 0.96 0.99 0.01 0.01 0.99 0.01 0.99 0.01 0.99 0.97 0.03 0.7 0.3 0.01 0.99 0.95 0.05 0.1 0.9 0.95 0.05 0.7 0.3 0.95 0.05 0.1 0.9 0.05 0.95 0.01 0.99 0.3333333 0.67 0.95 0.05 0.04 0.96 0.01 0.99 0.95 0.05 0.03 0.97 0.01 0.99 0.94 0.06 0.01 0.99 0.05 0.95 0.01 0.99 0.01 0.99 0.05 0.95 0.01 0.99 0.01 0.99 0.97 0.03 0.01 0.99 0.7 0.3 0.05 0.95 0.05 0.95 0.01 0.99 0.68 0.32 0.01 0.99 0.3 0.7 0.01 0.99 0.97 0.03 0.01 0.99 0.01 0.99 0.01 0.99 0.01 0.99 0.01 0.99 0.93 0.07 0.01 0.99 0.01 0.99 0.01 0.99 0.97 0.03 0.01 0.99 0.01 0.99 0.97 0.03 0.01 0.99 0.99 0.01 0.01 0.99 0.01 0.99 0.97 0.03 0.01 0.99 0.01 0.99 0.01 0.99 0.01 0.99 0.01 0.99 0.01 0.99 0.97 0.03 0.97 0.03 0.01 0.99 0.01 0.99 0.01 0.99 0.01 0.99 0.97 0.03 0.58 0.42 0.01 0.99 0.4 0.6 0.01 0.99 0.01 0.99 0.97 0.03 0.04 0.96 0.92 0.08 0.95 0.05 0.04 0.96 0.95 0.05 0.01 0.99 0.01 0.99 0.3 0.7 0.01 0.99 0.01 0.99 0.97 0.03 0.01 0.99 0.05 0.95 0.01 0.99 0.7 0.3 0.97 0.03 0.01 0.99 0.01 0.99 1.0 0.0 0.0 1.0 0.01 0.99 0.01 0.99 0.97 0.03 0.01 0.99 0.01 0.99 0.97 0.03 0.05 0.95 0.05 0.95 0.01 0.99 0.01 0.99 0.01 0.99 0.7 0.3 0.01 0.99 0.01 0.99 0.98 0.02 0.01 0.99 0.01 0.99 0.97 0.03 0.93 0.07 0.01 0.99 0.01 0.99 0.01 0.99 0.01 0.99 0.01 0.99 0.01 0.99 0.97 0.03 0.98 0.02 0.01 0.99 0.01 0.99 0.01 0.99 0.01 0.99 0.01 0.99 0.99 0.01 0.01 0.99 0.01 0.99 0.97 0.03 0.4 0.6 0.3 0.7 0.01 0.99 0.01 0.99 0.97 0.03 0.03 0.97 0.01 0.99 0.95 0.05 0.7 0.3 0.01 0.99 0.01 0.99 0.01 0.99 0.97 0.03 0.01 0.99 0.01 0.99 0.01 0.99 0.01 0.99 0.88 0.12 0.01 0.99 0.01 0.99 0.01 0.99 0.9 0.1 0.09 0.91 0.1 0.9 0.03 0.97 0.01 0.99 0.95 0.05 0.01 0.99 0.01 0.99 0.93 0.07 0.05 0.95 0.01 0.99 0.01 0.99 0.97 0.03 0.01 0.99 0.97 0.03 0.01 0.99 0.01 0.99 0.01 0.99 0.97 0.03 0.01 0.99 0.97 0.03 0.01 0.99 0.98 0.02 0.05 0.95 0.05 0.95 0.01 0.99 0.1 0.9 0.01 0.99 0.01 0.99 0.05 0.95 0.01 0.99 0.01 0.99 0.97 0.03 0.05 0.95 0.01 0.99 0.01 0.99 0.97 0.03 0.01 0.99 0.01 0.99 0.01 0.99 0.01 0.99 0.01 0.99 0.01 0.99 0.95 0.05 0.01 0.99 0.97 0.03 0.01 0.99 0.01 0.99 0.01 0.99 0.48 0.52 0.01 0.99 0.5 0.5 0.01 0.99 0.01 0.99 0.01 0.99 0.01 0.99 0.98 0.02 0.01 0.99 0.98 0.02 0.01 0.99 0.9 0.1 0.01 0.99 0.01 0.99 0.01 0.99 0.97 0.03 0.01 0.99 
p cnf 319 482
1 2 0
-1 -2 0
3 4 5 6  0
-3 -4 0
-3 -5 0
-3 -6 0
-4 -5 0
-4 -6 0
-5 -6 0
7 8  0
-7 -8 0
9 10 11  0
-9 -10 0
-9 -11 0
-10 -11 0
12 13 14 15  0
-12 -13 0
-12 -14 0
-12 -15 0
-13 -14 0
-13 -15 0
-14 -15 0
16 17 18  0
-16 -17 0
-16 -18 0
-17 -18 0
19 20  0
-19 -20 0
21 22 23 24  0
-21 -22 0
-21 -23 0
-21 -24 0
-22 -23 0
-22 -24 0
-23 -24 0
25 26 27  0
-25 -26 0
-25 -27 0
-26 -27 0
28 29 30  0
-28 -29 0
-28 -30 0
-29 -30 0
31 32 33 34  0
-31 -32 0
-31 -33 0
-31 -34 0
-32 -33 0
-32 -34 0
-33 -34 0
35 36 37  0
-35 -36 0
-35 -37 0
-36 -37 0
38 40 42  0
-38 -40 0
-38 -42 0
-40 -42 0
38 -39  0
40 -41 39  0
42 39 41  0
43 45  0
-43 -45 0
43 -44  0
45 44  0
46 48 50  0
-46 -48 0
-46 -50 0
-48 -50 0
46 -47  0
48 -49 47  0
50 47 49  0
51 52 0
-51 -52 0
-53 51 0
53 52 0
54 55 0
-54 -55 0
-56 54 0
56 55 0
57 58 0
-57 -58 0
-59 57 0
59 58 0
60 61 0
-60 -61 0
-62 60 0
62 61 0
63 64 0
-63 -64 0
-65 63 0
65 64 0
66 67 0
-66 -67 0
-68 66 0
68 67 0
-51 -29 -69 1  0
-51 -29 69 2  0
-58 -32 -70 3  0
-58 -32 70 -71 4  0
-58 -32 70 71 -72 5  0
-58 -32 70 71 72 6  0
-37 -60 -11 -27 -73 7  0
-37 -60 -11 -27 73 8  0
-58 -33 -74 3  0
-58 -33 74 -75 4  0
-58 -33 74 75 -76 5  0
-58 -33 74 75 76 6  0
-37 -61 -11 -27 -77 7  0
-37 -61 -11 -27 77 8  0
-35 -61 -10 -25 -78 7  0
-35 -61 -10 -25 78 8  0
-35 -61 -10 -26 -79 7  0
-35 -61 -10 -26 79 8  0
-37 -61 -11 -26 -80 7  0
-37 -61 -11 -26 80 8  0
-37 -60 -9 -26 -81 7  0
-37 -60 -9 -26 81 8  0
-18 -20 -82 9  0
-18 -20 82 -83 10  0
-18 -20 82 83 11  0
-36 -61 -10 -27 -84 7  0
-36 -61 -10 -27 84 8  0
-35 -60 -10 -27 -85 7  0
-35 -60 -10 -27 85 8  0
-58 -31 -86 3  0
-58 -31 86 -87 4  0
-58 -31 86 87 -88 5  0
-58 -31 86 87 88 6  0
-37 -61 -10 -26 -89 7  0
-37 -61 -10 -26 89 8  0
-38 -55 -5 -90 12  0
-38 -55 -5 90 -91 13  0
-38 -55 -5 90 91 -92 14  0
-38 -55 -5 90 91 92 15  0
-36 -61 -11 -26 -93 7  0
-36 -61 -11 -26 93 8  0
-52 -29 -94 1  0
-52 -29 94 2  0
-45 -23 -95 16  0
-45 -23 95 -96 17  0
-45 -23 95 96 18  0
-43 -22 -97 16  0
-43 -22 97 -98 17  0
-43 -22 97 98 18  0
-43 -23 -99 16  0
-43 -23 99 -100 17  0
-43 -23 99 100 18  0
-42 -55 -6 -101 12  0
-42 -55 -6 101 -102 13  0
-42 -55 -6 101 102 -103 14  0
-42 -55 -6 101 102 103 15  0
-35 -60 -11 -26 -104 7  0
-35 -60 -11 -26 104 8  0
-45 -21 -105 16  0
-45 -21 105 -106 17  0
-45 -21 105 106 18  0
-37 -60 -11 -26 -107 7  0
-37 -60 -11 -26 107 8  0
-35 -61 -11 -26 -108 7  0
-35 -61 -11 -26 108 8  0
-35 -61 -9 -26 -109 7  0
-35 -61 -9 -26 109 8  0
-42 -64 -110 19  0
-42 -64 110 20  0
-37 -61 -9 -26 -111 7  0
-37 -61 -9 -26 111 8  0
-40 -64 -112 19  0
-40 -64 112 20  0
-37 -61 -9 -25 -113 7  0
-37 -61 -9 -25 113 8  0
-51 -30 -114 1  0
-51 -30 114 2  0
-43 -24 -115 16  0
-43 -24 115 -116 17  0
-43 -24 115 116 18  0
-38 -15 -117 21  0
-38 -15 117 -118 22  0
-38 -15 117 118 -119 23  0
-38 -15 117 118 119 24  0
-42 -15 -120 21  0
-42 -15 120 -121 22  0
-42 -15 120 121 -122 23  0
-42 -15 120 121 122 24  0
-35 -60 -11 -25 -123 7  0
-35 -60 -11 -25 123 8  0
-66 -124 25  0
-66 124 -125 26  0
-66 124 125 27  0
-36 -61 -11 -25 -126 7  0
-36 -61 -11 -25 126 8  0
-38 -54 -3 -127 12  0
-38 -54 -3 127 -128 13  0
-38 -54 -3 127 128 -129 14  0
-38 -54 -3 127 128 129 15  0
-37 -60 -9 -25 -130 7  0
-37 -60 -9 -25 130 8  0
-36 -61 -9 -26 -131 7  0
-36 -61 -9 -26 131 8  0
-7 -132 28  0
-7 132 -133 29  0
-7 132 133 30  0
-37 -60 -9 -27 -134 7  0
-37 -60 -9 -27 134 8  0
-40 -55 -3 -135 12  0
-40 -55 -3 135 -136 13  0
-40 -55 -3 135 136 -137 14  0
-40 -55 -3 135 136 137 15  0
-40 -12 -138 21  0
-40 -12 138 -139 22  0
-40 -12 138 139 -140 23  0
-40 -12 138 139 140 24  0
-38 -13 -141 21  0
-38 -13 141 -142 22  0
-38 -13 141 142 -143 23  0
-38 -13 141 142 143 24  0
-50 -144 31  0
-50 144 -145 32  0
-50 144 145 -146 33  0
-50 144 145 146 34  0
-38 -54 -5 -147 12  0
-38 -54 -5 147 -148 13  0
-38 -54 -5 147 148 -149 14  0
-38 -54 -5 147 148 149 15  0
-57 -33 -150 3  0
-57 -33 150 -151 4  0
-57 -33 150 151 -152 5  0
-57 -33 150 151 152 6  0
-36 -60 -9 -25 -153 7  0
-36 -60 -9 -25 153 8  0
-36 -61 -10 -26 -154 7  0
-36 -61 -10 -26 154 8  0
-40 -54 -4 -155 12  0
-40 -54 -4 155 -156 13  0
-40 -54 -4 155 156 -157 14  0
-40 -54 -4 155 156 157 15  0
-40 -55 -4 -158 12  0
-40 -55 -4 158 -159 13  0
-40 -55 -4 158 159 -160 14  0
-40 -55 -4 158 159 160 15  0
-35 -60 -9 -27 -161 7  0
-35 -60 -9 -27 161 8  0
-40 -55 -5 -162 12  0
-40 -55 -5 162 -163 13  0
-40 -55 -5 162 163 -164 14  0
-40 -55 -5 162 163 164 15  0
-38 -12 -165 21  0
-38 -12 165 -166 22  0
-38 -12 165 166 -167 23  0
-38 -12 165 166 167 24  0
-40 -13 -168 21  0
-40 -13 168 -169 22  0
-40 -13 168 169 -170 23  0
-40 -13 168 169 170 24  0
-40 -54 -5 -171 12  0
-40 -54 -5 171 -172 13  0
-40 -54 -5 171 172 -173 14  0
-40 -54 -5 171 172 173 15  0
-42 -12 -174 21  0
-42 -12 174 -175 22  0
-42 -12 174 175 -176 23  0
-42 -12 174 175 176 24  0
-24 -177 35  0
-24 177 -178 36  0
-24 177 178 37  0
-45 -22 -179 16  0
-45 -22 179 -180 17  0
-45 -22 179 180 18  0
-38 -64 -181 19  0
-38 -64 181 20  0
-23 -182 35  0
-23 182 -183 36  0
-23 182 183 37  0
-37 -60 -10 -26 -184 7  0
-37 -60 -10 -26 184 8  0
-38 -54 -4 -185 12  0
-38 -54 -4 185 -186 13  0
-38 -54 -4 185 186 -187 14  0
-38 -54 -4 185 186 187 15  0
-37 -61 -10 -25 -188 7  0
-37 -61 -10 -25 188 8  0
-35 -60 -10 -25 -189 7  0
-35 -60 -10 -25 189 8  0
-35 -61 -9 -27 -190 7  0
-35 -61 -9 -27 190 8  0
-36 -60 -11 -26 -191 7  0
-36 -60 -11 -26 191 8  0
-42 -54 -6 -192 12  0
-42 -54 -6 192 -193 13  0
-42 -54 -6 192 193 -194 14  0
-42 -54 -6 192 193 194 15  0
-45 -24 -195 16  0
-45 -24 195 -196 17  0
-45 -24 195 196 18  0
-40 -54 -3 -197 12  0
-40 -54 -3 197 -198 13  0
-40 -54 -3 197 198 -199 14  0
-40 -54 -3 197 198 199 15  0
-42 -55 -5 -200 12  0
-42 -55 -5 200 -201 13  0
-42 -55 -5 200 201 -202 14  0
-42 -55 -5 200 201 202 15  0
-36 -60 -10 -25 -203 7  0
-36 -60 -10 -25 203 8  0
-36 -61 -9 -25 -204 7  0
-36 -61 -9 -25 204 8  0
-57 -32 -205 3  0
-57 -32 205 -206 4  0
-57 -32 205 206 -207 5  0
-57 -32 205 206 207 6  0
-36 -60 -9 -26 -208 7  0
-36 -60 -9 -26 208 8  0
-37 -60 -10 -25 -209 7  0
-37 -60 -10 -25 209 8  0
-18 -19 -210 9  0
-18 -19 210 -211 10  0
-18 -19 210 211 11  0
-40 -55 -6 -212 12  0
-40 -55 -6 212 -213 13  0
-40 -55 -6 212 213 -214 14  0
-40 -55 -6 212 213 214 15  0
-46 -215 31  0
-46 215 -216 32  0
-46 215 216 -217 33  0
-46 215 216 217 34  0
-43 -21 -218 16  0
-43 -21 218 -219 17  0
-43 -21 218 219 18  0
-38 -14 -220 21  0
-38 -14 220 -221 22  0
-38 -14 220 221 -222 23  0
-38 -14 220 221 222 24  0
-17 -20 -223 9  0
-17 -20 223 -224 10  0
-17 -20 223 224 11  0
-52 -28 -225 1  0
-52 -28 225 2  0
-40 -14 -226 21  0
-40 -14 226 -227 22  0
-40 -14 226 227 -228 23  0
-40 -14 226 227 228 24  0
-36 -60 -10 -26 -229 7  0
-36 -60 -10 -26 229 8  0
-57 -31 -230 3  0
-57 -31 230 -231 4  0
-57 -31 230 231 -232 5  0
-57 -31 230 231 232 6  0
-67 -233 25  0
-67 233 -234 26  0
-67 233 234 27  0
-42 -54 -3 -235 12  0
-42 -54 -3 235 -236 13  0
-42 -54 -3 235 236 -237 14  0
-42 -54 -3 235 236 237 15  0
-42 -54 -5 -238 12  0
-42 -54 -5 238 -239 13  0
-42 -54 -5 238 239 -240 14  0
-42 -54 -5 238 239 240 15  0
-35 -60 -9 -26 -241 7  0
-35 -60 -9 -26 241 8  0
-17 -19 -242 9  0
-17 -19 242 -243 10  0
-17 -19 242 243 11  0
-36 -60 -9 -27 -244 7  0
-36 -60 -9 -27 244 8  0
-42 -13 -245 21  0
-42 -13 245 -246 22  0
-42 -13 245 246 -247 23  0
-42 -13 245 246 247 24  0
-37 -61 -11 -25 -248 7  0
-37 -61 -11 -25 248 8  0
-40 -15 -249 21  0
-40 -15 249 -250 22  0
-40 -15 249 250 -251 23  0
-40 -15 249 250 251 24  0
-51 -28 -252 1  0
-51 -28 252 2  0
-35 -61 -11 -27 -253 7  0
-35 -61 -11 -27 253 8  0
-21 -254 35  0
-21 254 -255 36  0
-21 254 255 37  0
-38 -63 -256 19  0
-38 -63 256 20  0
-38 -55 -3 -257 12  0
-38 -55 -3 257 -258 13  0
-38 -55 -3 257 258 -259 14  0
-38 -55 -3 257 258 259 15  0
-48 -260 31  0
-48 260 -261 32  0
-48 260 261 -262 33  0
-48 260 261 262 34  0
-35 -61 -11 -25 -263 7  0
-35 -61 -11 -25 263 8  0
-57 -34 -264 3  0
-57 -34 264 -265 4  0
-57 -34 264 265 -266 5  0
-57 -34 264 265 266 6  0
-42 -14 -267 21  0
-42 -14 267 -268 22  0
-42 -14 267 268 -269 23  0
-42 -14 267 268 269 24  0
-38 -54 -6 -270 12  0
-38 -54 -6 270 -271 13  0
-38 -54 -6 270 271 -272 14  0
-38 -54 -6 270 271 272 15  0
-42 -55 -4 -273 12  0
-42 -55 -4 273 -274 13  0
-42 -55 -4 273 274 -275 14  0
-42 -55 -4 273 274 275 15  0
-52 -30 -276 1  0
-52 -30 276 2  0
-36 -60 -11 -25 -277 7  0
-36 -60 -11 -25 277 8  0
-35 -61 -9 -25 -278 7  0
-35 -61 -9 -25 278 8  0
-37 -61 -10 -27 -279 7  0
-37 -61 -10 -27 279 8  0
-42 -63 -280 19  0
-42 -63 280 20  0
-37 -60 -11 -25 -281 7  0
-37 -60 -11 -25 281 8  0
-35 -60 -9 -25 -282 7  0
-35 -60 -9 -25 282 8  0
-36 -61 -10 -25 -283 7  0
-36 -61 -10 -25 283 8  0
-58 -34 -284 3  0
-58 -34 284 -285 4  0
-58 -34 284 285 -286 5  0
-58 -34 284 285 286 6  0
-35 -61 -10 -27 -287 7  0
-35 -61 -10 -27 287 8  0
-36 -60 -10 -27 -288 7  0
-36 -60 -10 -27 288 8  0
-37 -60 -10 -27 -289 7  0
-37 -60 -10 -27 289 8  0
-38 -55 -4 -290 12  0
-38 -55 -4 290 -291 13  0
-38 -55 -4 290 291 -292 14  0
-38 -55 -4 290 291 292 15  0
-35 -60 -11 -27 -293 7  0
-35 -60 -11 -27 293 8  0
-22 -294 35  0
-22 294 -295 36  0
-22 294 295 37  0
-40 -63 -296 19  0
-40 -63 296 20  0
-35 -60 -10 -26 -297 7  0
-35 -60 -10 -26 297 8  0
-40 -54 -6 -298 12  0
-40 -54 -6 298 -299 13  0
-40 -54 -6 298 299 -300 14  0
-40 -54 -6 298 299 300 15  0
-36 -60 -11 -27 -301 7  0
-36 -60 -11 -27 301 8  0
-37 -61 -9 -27 -302 7  0
-37 -61 -9 -27 302 8  0
-42 -55 -3 -303 12  0
-42 -55 -3 303 -304 13  0
-42 -55 -3 303 304 -305 14  0
-42 -55 -3 303 304 305 15  0
-36 -61 -11 -27 -306 7  0
-36 -61 -11 -27 306 8  0
-38 -55 -6 -307 12  0
-38 -55 -6 307 -308 13  0
-38 -55 -6 307 308 -309 14  0
-38 -55 -6 307 308 309 15  0
-16 -19 -310 9  0
-16 -19 310 -311 10  0
-16 -19 310 311 11  0
-16 -20 -312 9  0
-16 -20 312 -313 10  0
-16 -20 312 313 11  0
-8 -314 28  0
-8 314 -315 29  0
-8 314 315 30  0
-42 -54 -4 -316 12  0
-42 -54 -4 316 -317 13  0
-42 -54 -4 316 317 -318 14  0
-42 -54 -4 316 317 318 15  0
-36 -61 -9 -27 -319 7  0
-36 -61 -9 -27 319 8  0
